
p cnf 20 70
-5 23 0
-4 23 0
-23 5 4 0
-23 22 0
-3 22 0
-22 23 3 0
-22 21 0
-2 21 0
-21 22 2 0
-10 26 0
-9 26 0
-26 10 9 0
-26 25 0
-8 25 0
-25 26 8 0
-25 24 0
-7 24 0
-24 25 7 0
-15 29 0
-14 29 0
-29 15 14 0
-29 28 0
-13 28 0
-28 29 13 0
-28 27 0
-12 27 0
-27 28 12 0
-6 30 0
-7 30 0
-30 6 7 0
-30 31 0
-8 31 0
-31 30 8 0
-31 32 0
-9 32 0
-32 31 9 0
-11 33 0
-12 33 0
-33 11 12 0
-33 34 0
-13 34 0
-34 33 13 0
-34 35 0
-14 35 0
-35 34 14 0
-16 36 0
-17 36 0
-36 16 17 0
-36 37 0
-18 37 0
-37 36 18 0
-37 38 0
-19 38 0
-38 37 19 0
1 21 0
21 6 0
22 30 0
23 31 0
5 32 0
6 24 32 0
24 11 0
25 33 0
26 34 0
10 35 0
11 27 35 0
27 16 0
28 36 0
29 37 0
15 38 0
16 38 0
